c Sudoku solution
p cnf 729 0
168 0
216 0
235 0
247 0
349 0
356 0
385 0
392 0
431 0
499 0
515 0
526 0
598 0
613 0
634 0
657 0
725 0
751 0
782 0
863 0
889 0
896 0
938 0
736 0
923 0
288 0
966 0
767 0
959 0
719 0
995 0
691 0
686 0
446 0
176 0
279 0
197 0
675 0
465 0
484 0
155 0
845 0
114 0
824 0
669 0
539 0
129 0
587 0
183 0
371 0
294 0
141 0
364 0
253 0
262 0
132 0
221 0
333 0
837 0
561 0
543 0
458 0
554 0
642 0
473 0
572 0
628 0
318 0
327 0
417 0
422 0
944 0
852 0
748 0
878 0
811 0
912 0
977 0
981 0
774 0
793 0
